p cnf 1387
-24 -430
-25 -433
-26 -436
-27 -439
-28 -442
-29 -445
-30 -448
-31 -451
-32 -454
-33 -457
-34 -460
-35 -463
-36 -466
-37 -469
-38 -472
-39 -475
-40 -478
-41 -481
-42 -484
-43 -487
-44 -490
-45 -493
-46 -496
-47 497
-48 498
-49 499
-50 500
-51 501
-52 502
-53 503
-54 -25
-54 -26
25 26 54
-55 -27
-55 -28
27 28 55
-56 -29
-56 -30
29 30 56
-57 -31
-57 -32
31 32 57
-58 -33
-58 -34
33 34 58
-59 -35
-59 -36
35 36 59
-60 -37
-60 -38
37 38 60
-61 -39
-61 -40
39 40 61
-62 -41
-62 -42
41 42 62
-63 -43
-63 -44
43 44 63
-64 -45
-64 -46
45 46 64
-65 -47
-65 -48
47 48 65
-66 -49
-66 -50
49 50 66
-67 -51
-67 -52
51 52 67
-68 54
-68 55
-54 -55 68
-69 56
-69 57
-56 -57 69
-70 58
-70 59
-58 -59 70
-71 60
-71 61
-60 -61 71
-72 62
-72 63
-62 -63 72
-73 64
-73 65
-64 -65 73
-74 66
-74 67
-66 -67 74
-75 68
-75 69
-68 -69 75
-76 70
-76 71
-70 -71 76
-77 72
-77 73
-72 -73 77
-78 -53
-78 74
53 -74 78
-79 75
-79 76
-75 -76 79
-80 77
-80 78
-77 -78 80
-81 79
-81 80
-79 -80 81
-82 -24
-82 25
24 -25 82
-83 24
-83 -25
-24 25 83
-84 -82
-84 -83
82 83 84
-85 24
-85 25
-24 -25 85
-86 -24
-86 -84
24 84 86
-87 24
-87 84
-24 -84 87
-88 -86
-88 -87
86 87 88
-89 24
-89 -84
-24 84 89
-90 -85
-90 -89
85 89 90
-91 -25
-91 26
25 -26 91
-92 25
-92 -26
-25 26 92
-93 -91
-93 -92
91 92 93
-94 25
-94 26
-25 -26 94
-95 90
-95 -93
-90 93 95
-96 -90
-96 93
90 -93 96
-97 -95
-97 -96
95 96 97
-98 -90
-98 -93
90 93 98
-99 -94
-99 -98
94 98 99
-100 -26
-100 27
26 -27 100
-101 26
-101 -27
-26 27 101
-102 -100
-102 -101
100 101 102
-103 26
-103 27
-26 -27 103
-104 99
-104 -102
-99 102 104
-105 -99
-105 102
99 -102 105
-106 -104
-106 -105
104 105 106
-107 -99
-107 -102
99 102 107
-108 -103
-108 -107
103 107 108
-109 -27
-109 28
27 -28 109
-110 27
-110 -28
-27 28 110
-111 -109
-111 -110
109 110 111
-112 27
-112 28
-27 -28 112
-113 108
-113 -111
-108 111 113
-114 -108
-114 111
108 -111 114
-115 -113
-115 -114
113 114 115
-116 -108
-116 -111
108 111 116
-117 -112
-117 -116
112 116 117
-118 -28
-118 29
28 -29 118
-119 28
-119 -29
-28 29 119
-120 -118
-120 -119
118 119 120
-121 28
-121 29
-28 -29 121
-122 117
-122 -120
-117 120 122
-123 -117
-123 120
117 -120 123
-124 -122
-124 -123
122 123 124
-125 -117
-125 -120
117 120 125
-126 -121
-126 -125
121 125 126
-127 -29
-127 30
29 -30 127
-128 29
-128 -30
-29 30 128
-129 -127
-129 -128
127 128 129
-130 29
-130 30
-29 -30 130
-131 126
-131 -129
-126 129 131
-132 -126
-132 129
126 -129 132
-133 -131
-133 -132
131 132 133
-134 -126
-134 -129
126 129 134
-135 -130
-135 -134
130 134 135
-136 -30
-136 31
30 -31 136
-137 30
-137 -31
-30 31 137
-138 -136
-138 -137
136 137 138
-139 30
-139 31
-30 -31 139
-140 135
-140 -138
-135 138 140
-141 -135
-141 138
135 -138 141
-142 -140
-142 -141
140 141 142
-143 -135
-143 -138
135 138 143
-144 -139
-144 -143
139 143 144
-145 -31
-145 32
31 -32 145
-146 31
-146 -32
-31 32 146
-147 -145
-147 -146
145 146 147
-148 31
-148 32
-31 -32 148
-149 144
-149 -147
-144 147 149
-150 -144
-150 147
144 -147 150
-151 -149
-151 -150
149 150 151
-152 -144
-152 -147
144 147 152
-153 -148
-153 -152
148 152 153
-154 -32
-154 33
32 -33 154
-155 32
-155 -33
-32 33 155
-156 -154
-156 -155
154 155 156
-157 32
-157 33
-32 -33 157
-158 153
-158 -156
-153 156 158
-159 -153
-159 156
153 -156 159
-160 -158
-160 -159
158 159 160
-161 -153
-161 -156
153 156 161
-162 -157
-162 -161
157 161 162
-163 -33
-163 34
33 -34 163
-164 33
-164 -34
-33 34 164
-165 -163
-165 -164
163 164 165
-166 33
-166 34
-33 -34 166
-167 162
-167 -165
-162 165 167
-168 -162
-168 165
162 -165 168
-169 -167
-169 -168
167 168 169
-170 -162
-170 -165
162 165 170
-171 -166
-171 -170
166 170 171
-172 -34
-172 35
34 -35 172
-173 34
-173 -35
-34 35 173
-174 -172
-174 -173
172 173 174
-175 34
-175 35
-34 -35 175
-176 171
-176 -174
-171 174 176
-177 -171
-177 174
171 -174 177
-178 -176
-178 -177
176 177 178
-179 -171
-179 -174
171 174 179
-180 -175
-180 -179
175 179 180
-181 -35
-181 36
35 -36 181
-182 35
-182 -36
-35 36 182
-183 -181
-183 -182
181 182 183
-184 35
-184 36
-35 -36 184
-185 180
-185 -183
-180 183 185
-186 -180
-186 183
180 -183 186
-187 -185
-187 -186
185 186 187
-188 -180
-188 -183
180 183 188
-189 -184
-189 -188
184 188 189
-190 -36
-190 37
36 -37 190
-191 36
-191 -37
-36 37 191
-192 -190
-192 -191
190 191 192
-193 36
-193 37
-36 -37 193
-194 189
-194 -192
-189 192 194
-195 -189
-195 192
189 -192 195
-196 -194
-196 -195
194 195 196
-197 -189
-197 -192
189 192 197
-198 -193
-198 -197
193 197 198
-199 -37
-199 38
37 -38 199
-200 37
-200 -38
-37 38 200
-201 -199
-201 -200
199 200 201
-202 37
-202 38
-37 -38 202
-203 198
-203 -201
-198 201 203
-204 -198
-204 201
198 -201 204
-205 -203
-205 -204
203 204 205
-206 -198
-206 -201
198 201 206
-207 -202
-207 -206
202 206 207
-208 -38
-208 39
38 -39 208
-209 38
-209 -39
-38 39 209
-210 -208
-210 -209
208 209 210
-211 38
-211 39
-38 -39 211
-212 207
-212 -210
-207 210 212
-213 -207
-213 210
207 -210 213
-214 -212
-214 -213
212 213 214
-215 -207
-215 -210
207 210 215
-216 -211
-216 -215
211 215 216
-217 -39
-217 40
39 -40 217
-218 39
-218 -40
-39 40 218
-219 -217
-219 -218
217 218 219
-220 39
-220 40
-39 -40 220
-221 216
-221 -219
-216 219 221
-222 -216
-222 219
216 -219 222
-223 -221
-223 -222
221 222 223
-224 -216
-224 -219
216 219 224
-225 -220
-225 -224
220 224 225
-226 -40
-226 41
40 -41 226
-227 40
-227 -41
-40 41 227
-228 -226
-228 -227
226 227 228
-229 40
-229 41
-40 -41 229
-230 225
-230 -228
-225 228 230
-231 -225
-231 228
225 -228 231
-232 -230
-232 -231
230 231 232
-233 -225
-233 -228
225 228 233
-234 -229
-234 -233
229 233 234
-235 -41
-235 42
41 -42 235
-236 41
-236 -42
-41 42 236
-237 -235
-237 -236
235 236 237
-238 41
-238 42
-41 -42 238
-239 234
-239 -237
-234 237 239
-240 -234
-240 237
234 -237 240
-241 -239
-241 -240
239 240 241
-242 -234
-242 -237
234 237 242
-243 -238
-243 -242
238 242 243
-244 -42
-244 43
42 -43 244
-245 42
-245 -43
-42 43 245
-246 -244
-246 -245
244 245 246
-247 42
-247 43
-42 -43 247
-248 243
-248 -246
-243 246 248
-249 -243
-249 246
243 -246 249
-250 -248
-250 -249
248 249 250
-251 -243
-251 -246
243 246 251
-252 -247
-252 -251
247 251 252
-253 -43
-253 44
43 -44 253
-254 43
-254 -44
-43 44 254
-255 -253
-255 -254
253 254 255
-256 43
-256 44
-43 -44 256
-257 252
-257 -255
-252 255 257
-258 -252
-258 255
252 -255 258
-259 -257
-259 -258
257 258 259
-260 -252
-260 -255
252 255 260
-261 -256
-261 -260
256 260 261
-262 -44
-262 45
44 -45 262
-263 44
-263 -45
-44 45 263
-264 -262
-264 -263
262 263 264
-265 44
-265 45
-44 -45 265
-266 261
-266 -264
-261 264 266
-267 -261
-267 264
261 -264 267
-268 -266
-268 -267
266 267 268
-269 -261
-269 -264
261 264 269
-270 -265
-270 -269
265 269 270
-271 -45
-271 46
45 -46 271
-272 45
-272 -46
-45 46 272
-273 -271
-273 -272
271 272 273
-274 45
-274 46
-45 -46 274
-275 270
-275 -273
-270 273 275
-276 -270
-276 273
270 -273 276
-277 -275
-277 -276
275 276 277
-278 -270
-278 -273
270 273 278
-279 -274
-279 -278
274 278 279
-280 -46
-280 47
46 -47 280
-281 46
-281 -47
-46 47 281
-282 -280
-282 -281
280 281 282
-283 46
-283 47
-46 -47 283
-284 279
-284 -282
-279 282 284
-285 -279
-285 282
279 -282 285
-286 -284
-286 -285
284 285 286
-287 -279
-287 -282
279 282 287
-288 -283
-288 -287
283 287 288
-289 -47
-289 48
47 -48 289
-290 47
-290 -48
-47 48 290
-291 -289
-291 -290
289 290 291
-292 47
-292 48
-47 -48 292
-293 288
-293 -291
-288 291 293
-294 -288
-294 291
288 -291 294
-295 -293
-295 -294
293 294 295
-296 -288
-296 -291
288 291 296
-297 -292
-297 -296
292 296 297
-298 -48
-298 49
48 -49 298
-299 48
-299 -49
-48 49 299
-300 -298
-300 -299
298 299 300
-301 48
-301 49
-48 -49 301
-302 297
-302 -300
-297 300 302
-303 -297
-303 300
297 -300 303
-304 -302
-304 -303
302 303 304
-305 -297
-305 -300
297 300 305
-306 -301
-306 -305
301 305 306
-307 -49
-307 50
49 -50 307
-308 49
-308 -50
-49 50 308
-309 -307
-309 -308
307 308 309
-310 49
-310 50
-49 -50 310
-311 306
-311 -309
-306 309 311
-312 -306
-312 309
306 -309 312
-313 -311
-313 -312
311 312 313
-314 -306
-314 -309
306 309 314
-315 -310
-315 -314
310 314 315
-316 -50
-316 51
50 -51 316
-317 50
-317 -51
-50 51 317
-318 -316
-318 -317
316 317 318
-319 50
-319 51
-50 -51 319
-320 315
-320 -318
-315 318 320
-321 -315
-321 318
315 -318 321
-322 -320
-322 -321
320 321 322
-323 -315
-323 -318
315 318 323
-324 -319
-324 -323
319 323 324
-325 -51
-325 52
51 -52 325
-326 51
-326 -52
-51 52 326
-327 -325
-327 -326
325 326 327
-328 51
-328 52
-51 -52 328
-329 324
-329 -327
-324 327 329
-330 -324
-330 327
324 -327 330
-331 -329
-331 -330
329 330 331
-332 -324
-332 -327
324 327 332
-333 -328
-333 -332
328 332 333
-334 -52
-334 53
52 -53 334
-335 52
-335 -53
-52 53 335
-336 -334
-336 -335
334 335 336
-337 52
-337 53
-52 -53 337
-338 333
-338 -336
-333 336 338
-339 -333
-339 336
333 -336 339
-340 -338
-340 -339
338 339 340
-341 -333
-341 -336
333 336 341
-342 -337
-342 -341
337 341 342
-343 24
-343 -88
-24 88 343
-344 -24
-344 26
24 -26 344
-345 -343
-345 -344
343 344 345
-346 24
-346 -97
-24 97 346
-347 -24
-347 27
24 -27 347
-348 -346
-348 -347
346 347 348
-349 24
-349 -106
-24 106 349
-350 -24
-350 28
24 -28 350
-351 -349
-351 -350
349 350 351
-352 24
-352 -115
-24 115 352
-353 -24
-353 29
24 -29 353
-354 -352
-354 -353
352 353 354
-355 24
-355 -124
-24 124 355
-356 -24
-356 30
24 -30 356
-357 -355
-357 -356
355 356 357
-358 24
-358 -133
-24 133 358
-359 -24
-359 31
24 -31 359
-360 -358
-360 -359
358 359 360
-361 24
-361 -142
-24 142 361
-362 -24
-362 32
24 -32 362
-363 -361
-363 -362
361 362 363
-364 24
-364 -151
-24 151 364
-365 -24
-365 33
24 -33 365
-366 -364
-366 -365
364 365 366
-367 24
-367 -160
-24 160 367
-368 -24
-368 34
24 -34 368
-369 -367
-369 -368
367 368 369
-370 24
-370 -169
-24 169 370
-371 -24
-371 35
24 -35 371
-372 -370
-372 -371
370 371 372
-373 24
-373 -178
-24 178 373
-374 -24
-374 36
24 -36 374
-375 -373
-375 -374
373 374 375
-376 24
-376 -187
-24 187 376
-377 -24
-377 37
24 -37 377
-378 -376
-378 -377
376 377 378
-379 24
-379 -196
-24 196 379
-380 -24
-380 38
24 -38 380
-381 -379
-381 -380
379 380 381
-382 24
-382 -205
-24 205 382
-383 -24
-383 39
24 -39 383
-384 -382
-384 -383
382 383 384
-385 24
-385 -214
-24 214 385
-386 -24
-386 40
24 -40 386
-387 -385
-387 -386
385 386 387
-388 24
-388 -223
-24 223 388
-389 -24
-389 41
24 -41 389
-390 -388
-390 -389
388 389 390
-391 24
-391 -232
-24 232 391
-392 -24
-392 42
24 -42 392
-393 -391
-393 -392
391 392 393
-394 24
-394 -241
-24 241 394
-395 -24
-395 43
24 -43 395
-396 -394
-396 -395
394 395 396
-397 24
-397 -250
-24 250 397
-398 -24
-398 44
24 -44 398
-399 -397
-399 -398
397 398 399
-400 24
-400 -259
-24 259 400
-401 -24
-401 45
24 -45 401
-402 -400
-402 -401
400 401 402
-403 24
-403 -268
-24 268 403
-404 -24
-404 46
24 -46 404
-405 -403
-405 -404
403 404 405
-406 24
-406 -277
-24 277 406
-407 -24
-407 47
24 -47 407
-408 -406
-408 -407
406 407 408
-409 24
-409 -286
-24 286 409
-410 -24
-410 48
24 -48 410
-411 -409
-411 -410
409 410 411
-412 24
-412 -295
-24 295 412
-413 -24
-413 49
24 -49 413
-414 -412
-414 -413
412 413 414
-415 24
-415 -304
-24 304 415
-416 -24
-416 50
24 -50 416
-417 -415
-417 -416
415 416 417
-418 24
-418 -313
-24 313 418
-419 -24
-419 51
24 -51 419
-420 -418
-420 -419
418 419 420
-421 24
-421 -322
-24 322 421
-422 -24
-422 52
24 -52 422
-423 -421
-423 -422
421 422 423
-424 24
-424 -331
-24 331 424
-425 -24
-425 53
24 -53 425
-426 -424
-426 -425
424 425 426
-427 24
-427 -340
-24 340 427
-428 1
-428 81
-1 -81 428
-429 -81
-429 82
81 -82 429
-430 -428
-430 -429
428 429 430
-431 2
-431 81
-2 -81 431
-432 -81
-432 -345
81 345 432
-433 -431
-433 -432
431 432 433
-434 3
-434 81
-3 -81 434
-435 -81
-435 -348
81 348 435
-436 -434
-436 -435
434 435 436
-437 4
-437 81
-4 -81 437
-438 -81
-438 -351
81 351 438
-439 -437
-439 -438
437 438 439
-440 5
-440 81
-5 -81 440
-441 -81
-441 -354
81 354 441
-442 -440
-442 -441
440 441 442
-443 6
-443 81
-6 -81 443
-444 -81
-444 -357
81 357 444
-445 -443
-445 -444
443 444 445
-446 7
-446 81
-7 -81 446
-447 -81
-447 -360
81 360 447
-448 -446
-448 -447
446 447 448
-449 8
-449 81
-8 -81 449
-450 -81
-450 -363
81 363 450
-451 -449
-451 -450
449 450 451
-452 9
-452 81
-9 -81 452
-453 -81
-453 -366
81 366 453
-454 -452
-454 -453
452 453 454
-455 10
-455 81
-10 -81 455
-456 -81
-456 -369
81 369 456
-457 -455
-457 -456
455 456 457
-458 11
-458 81
-11 -81 458
-459 -81
-459 -372
81 372 459
-460 -458
-460 -459
458 459 460
-461 12
-461 81
-12 -81 461
-462 -81
-462 -375
81 375 462
-463 -461
-463 -462
461 462 463
-464 13
-464 81
-13 -81 464
-465 -81
-465 -378
81 378 465
-466 -464
-466 -465
464 465 466
-467 14
-467 81
-14 -81 467
-468 -81
-468 -381
81 381 468
-469 -467
-469 -468
467 468 469
-470 15
-470 81
-15 -81 470
-471 -81
-471 -384
81 384 471
-472 -470
-472 -471
470 471 472
-473 16
-473 81
-16 -81 473
-474 -81
-474 -387
81 387 474
-475 -473
-475 -474
473 474 475
-476 17
-476 81
-17 -81 476
-477 -81
-477 -390
81 390 477
-478 -476
-478 -477
476 477 478
-479 18
-479 81
-18 -81 479
-480 -81
-480 -393
81 393 480
-481 -479
-481 -480
479 480 481
-482 19
-482 81
-19 -81 482
-483 -81
-483 -396
81 396 483
-484 -482
-484 -483
482 483 484
-485 20
-485 81
-20 -81 485
-486 -81
-486 -399
81 399 486
-487 -485
-487 -486
485 486 487
-488 21
-488 81
-21 -81 488
-489 -81
-489 -402
81 402 489
-490 -488
-490 -489
488 489 490
-491 22
-491 81
-22 -81 491
-492 -81
-492 -405
81 405 492
-493 -491
-493 -492
491 492 493
-494 23
-494 81
-23 -81 494
-495 -81
-495 -408
81 408 495
-496 -494
-496 -495
494 495 496
-497 -81
-497 -411
81 411 497
-498 -81
-498 -414
81 414 498
-499 -81
-499 -417
81 417 499
-500 -81
-500 -420
81 420 500
-501 -81
-501 -423
81 423 501
-502 -81
-502 -426
81 426 502
-503 -81
-503 427
81 -427 503
-504 -53
-504 342
53 -342 504
-505 24
-505 -504
-24 504 505
505
